jobs  (incl. supersource/sink ):	52
RESOURCES
- renewable                 : 2 R
- nonrenewable              : 2 N
- doubly constrained        : 0 D
************************************************************************
PRECEDENCE RELATIONS:
jobnr.    #modes  #successors   successors
1	1	5		2 3 4 5 7 
2	3	3		9 8 6 
3	3	4		21 14 13 11 
4	3	3		16 10 9 
5	3	3		13 11 10 
6	3	6		21 19 16 14 13 12 
7	3	3		16 15 10 
8	3	2		15 10 
9	3	4		21 19 15 12 
10	3	3		21 19 12 
11	3	3		19 16 12 
12	3	4		24 23 20 17 
13	3	4		24 23 22 17 
14	3	6		27 26 25 24 23 22 
15	3	3		24 22 18 
16	3	2		24 18 
17	3	2		28 18 
18	3	5		31 30 27 26 25 
19	3	5		31 30 29 27 24 
20	3	4		33 27 26 22 
21	3	5		34 31 30 28 25 
22	3	6		35 34 32 31 30 29 
23	3	6		35 34 32 31 30 29 
24	3	4		34 33 32 28 
25	3	4		39 33 32 29 
26	3	7		42 41 40 39 37 36 35 
27	3	7		44 42 41 40 38 36 34 
28	3	6		44 43 42 40 39 35 
29	3	3		42 37 36 
30	3	6		45 44 41 40 39 38 
31	3	6		44 42 41 40 39 38 
32	3	5		45 43 41 40 38 
33	3	4		45 42 38 36 
34	3	3		45 43 39 
35	3	4		51 49 45 38 
36	3	5		51 50 49 46 43 
37	3	3		45 44 38 
38	3	4		50 48 47 46 
39	3	4		51 50 49 46 
40	3	4		49 48 47 46 
41	3	4		51 49 47 46 
42	3	3		48 47 46 
43	3	2		48 47 
44	3	2		48 47 
45	3	1		46 
46	3	1		52 
47	3	1		52 
48	3	1		52 
49	3	1		52 
50	3	1		52 
51	3	1		52 
52	1	0		
************************************************************************
REQUESTS/DURATIONS
jobnr.	mode	dur	R1	R2	N1	N2	
------------------------------------------------------------------------
1	1	0	0	0	0	0	
2	1	1	4	0	5	0	
	2	3	0	3	4	0	
	3	4	2	0	4	0	
3	1	4	0	7	8	0	
	2	8	10	0	0	2	
	3	9	0	3	1	0	
4	1	2	0	10	0	6	
	2	6	1	0	0	6	
	3	8	0	5	0	6	
5	1	1	0	2	10	0	
	2	3	0	1	0	6	
	3	3	8	0	0	6	
6	1	5	0	6	0	5	
	2	5	2	0	0	4	
	3	10	0	5	0	2	
7	1	3	0	7	0	8	
	2	3	0	4	3	0	
	3	6	0	4	0	6	
8	1	8	0	9	9	0	
	2	8	9	0	0	4	
	3	9	0	8	0	3	
9	1	4	0	5	0	5	
	2	6	0	4	0	5	
	3	8	0	4	0	4	
10	1	1	0	9	0	4	
	2	3	0	7	0	3	
	3	8	0	5	4	0	
11	1	4	0	10	0	7	
	2	5	0	7	0	4	
	3	7	0	7	1	0	
12	1	2	0	9	8	0	
	2	3	0	7	8	0	
	3	3	2	0	0	6	
13	1	1	5	0	4	0	
	2	2	4	0	4	0	
	3	10	2	0	4	0	
14	1	7	0	7	7	0	
	2	9	0	7	6	0	
	3	10	3	0	6	0	
15	1	3	0	6	7	0	
	2	7	0	4	5	0	
	3	10	5	0	0	6	
16	1	7	0	6	6	0	
	2	7	7	0	6	0	
	3	10	0	3	5	0	
17	1	3	0	10	0	6	
	2	6	5	0	4	0	
	3	9	0	5	0	5	
18	1	2	6	0	7	0	
	2	3	4	0	6	0	
	3	8	4	0	0	10	
19	1	3	7	0	6	0	
	2	3	0	7	6	0	
	3	5	3	0	0	8	
20	1	5	0	10	9	0	
	2	7	0	8	7	0	
	3	10	0	8	0	3	
21	1	2	0	2	0	4	
	2	3	0	2	0	3	
	3	9	2	0	0	2	
22	1	6	6	0	0	4	
	2	7	6	0	8	0	
	3	8	0	4	0	2	
23	1	3	0	4	0	9	
	2	9	7	0	9	0	
	3	10	0	4	9	0	
24	1	2	10	0	5	0	
	2	4	0	8	0	2	
	3	10	0	8	5	0	
25	1	2	3	0	9	0	
	2	5	0	4	8	0	
	3	10	0	3	6	0	
26	1	4	10	0	0	2	
	2	7	0	6	0	1	
	3	8	0	5	0	1	
27	1	1	5	0	0	4	
	2	5	0	8	4	0	
	3	8	0	8	0	1	
28	1	1	8	0	2	0	
	2	4	0	5	0	7	
	3	6	0	5	2	0	
29	1	3	8	0	0	8	
	2	6	7	0	0	8	
	3	9	0	5	0	7	
30	1	1	9	0	9	0	
	2	1	0	5	0	2	
	3	2	0	5	0	1	
31	1	4	7	0	8	0	
	2	8	7	0	5	0	
	3	10	0	6	0	2	
32	1	5	6	0	0	9	
	2	8	5	0	6	0	
	3	10	0	2	6	0	
33	1	4	8	0	0	9	
	2	5	8	0	0	8	
	3	9	7	0	0	8	
34	1	6	0	2	0	5	
	2	7	0	1	5	0	
	3	10	0	1	0	3	
35	1	4	10	0	0	8	
	2	7	6	0	0	6	
	3	8	5	0	0	5	
36	1	3	0	7	0	7	
	2	6	6	0	1	0	
	3	10	0	7	1	0	
37	1	4	0	3	9	0	
	2	8	8	0	0	7	
	3	10	0	1	0	3	
38	1	4	0	3	0	8	
	2	5	0	2	3	0	
	3	6	0	1	3	0	
39	1	6	6	0	6	0	
	2	7	6	0	3	0	
	3	8	4	0	0	3	
40	1	1	4	0	0	9	
	2	2	0	9	0	6	
	3	4	0	9	0	2	
41	1	3	2	0	0	9	
	2	8	0	4	0	7	
	3	9	2	0	3	0	
42	1	5	7	0	5	0	
	2	8	6	0	0	3	
	3	9	0	3	2	0	
43	1	1	8	0	0	3	
	2	2	0	2	8	0	
	3	10	0	2	7	0	
44	1	2	6	0	5	0	
	2	8	4	0	0	1	
	3	10	0	4	0	1	
45	1	3	0	3	5	0	
	2	6	0	2	4	0	
	3	9	3	0	0	1	
46	1	3	0	6	7	0	
	2	6	1	0	0	3	
	3	10	1	0	0	2	
47	1	3	5	0	6	0	
	2	10	0	4	0	9	
	3	10	0	3	2	0	
48	1	2	8	0	0	7	
	2	4	0	3	5	0	
	3	4	0	2	0	3	
49	1	6	4	0	9	0	
	2	8	0	6	0	5	
	3	9	2	0	0	5	
50	1	3	0	6	9	0	
	2	6	4	0	0	7	
	3	10	1	0	0	7	
51	1	4	0	9	8	0	
	2	8	8	0	7	0	
	3	10	0	9	0	4	
52	1	0	0	0	0	0	
************************************************************************

 RESOURCE AVAILABILITIES 
	R 1	R 2	N 1	N 2
	29	25	195	194

************************************************************************
